*SENSE:Minimize
NAME          MODEL
ROWS
 N  OBJ
 L  C0000000
 L  C0000001
 L  C0000002
 G  C0000003
 L  C0000004
 G  C0000005
 G  C0000006
 G  C0000007
 L  C0000008
 G  C0000009
 G  C0000010
 L  C0000011
 G  C0000012
COLUMNS
    X0000000  C0000001   1.563404392000e+01
    X0000000  C0000002   1.563404392000e+01
    X0000000  C0000003   1.000000000000e+00
    X0000000  C0000004   1.000000000000e+00
    X0000000  C0000005  -1.000000000000e+00
    X0000000  C0000006  -1.000000000000e+00
    X0000000  C0000012   1.000000000000e+00
    X0000000  OBJ        1.000000000000e+00
    X0000001  C0000001  -1.563404392000e+01
    X0000001  C0000005   1.000000000000e+00
    X0000001  C0000007   1.000000000000e+00
    X0000001  C0000008   1.000000000000e+00
    X0000001  C0000009  -1.000000000000e+00
    X0000001  C0000012   1.000000000000e+00
    X0000001  OBJ        1.000000000000e+00
    X0000002  C0000002  -1.563404392000e+01
    X0000002  C0000006   1.000000000000e+00
    X0000002  C0000009   1.000000000000e+00
    X0000002  C0000010   1.000000000000e+00
    X0000002  C0000011   1.000000000000e+00
    X0000002  C0000012   1.000000000000e+00
    X0000002  OBJ        1.000000000000e+00
RHS
    RHS       C0000000  -8.739430551280e+00
    RHS       C0000001  -8.739430551280e+00
    RHS       C0000002  -8.739430551280e+00
    RHS       C0000003   0.000000000000e+00
    RHS       C0000004   1.000000000000e+00
    RHS       C0000005   0.000000000000e+00
    RHS       C0000006   0.000000000000e+00
    RHS       C0000007   0.000000000000e+00
    RHS       C0000008   1.000000000000e+00
    RHS       C0000009   0.000000000000e+00
    RHS       C0000010   0.000000000000e+00
    RHS       C0000011   1.000000000000e+00
    RHS       C0000012   1.000000000000e+00
BOUNDS
 UP BND       X0000000   1.000000000000e+00
 UP BND       X0000001   1.000000000000e+00
 UP BND       X0000002   1.000000000000e+00
ENDATA
